19:25:05 | INFO    | Run started | run_id: SR_SV_WT_case1_P5_eps9999 | log file: C:\Users\Asus\Documents\GitHub\logistics-model2\internal-logistics-model2\results\SR_SV_WT\case1\SR_SV_WT_case1_P5_eps9999_2026_05_06_19_25.log
19:25:05 | INFO    | Products loaded | sheet=case1 | rows=15
19:25:05 | INFO    | Data loaded | |N|=31 |Nw|=30 |K|=1 |R|=1 |P|=5 | U=30
19:25:05 | INFO    | Big-M | time=491.0 precedence=480.0 wait=465.0 load_lb=20 load_ub=20
19:25:05 | INFO    | Set parameter Username
19:25:05 | INFO    | Set parameter LicenseID to value 2811848
19:25:05 | INFO    | Academic license - for non-commercial use only - expires 2027-04-22
19:25:05 | INFO    | Objective set | primary: min total_wait | tie-break weight on route_duration: 0.001
19:25:05 | INFO    | Constraint (3) added | route_duration <= 9999
19:25:05 | INFO    | Constraints (4)-(9) added | route structure
19:25:05 | INFO    | Constraints (10)-(12) added | product assignment
19:25:05 | INFO    | Constraints (13)-(15) added | route timing
19:25:05 | INFO    | Constraints (16) added | time consistency
19:25:05 | INFO    | Constraints (17)-(19) added | service times
19:25:05 | INFO    | Constraints (20)-(22) added | precedence, route closure, waiting
19:25:05 | INFO    | Constraints (23)-(27) added | load propagation
19:25:05 | INFO    | Constraints (28)-(32) added | MTZ and route ordering
19:25:05 | INFO    | Set parameter TimeLimit to value 600
19:25:05 | INFO    | Set parameter MIPGap to value 0.01
19:25:05 | INFO    | Set parameter Presolve to value 2
19:25:05 | INFO    | Set parameter LogFile to value "C:\Users\Asus\Documents\GitHub\logistics-model2\internal-logistics-model2\results\SR_SV_WT\case1\result_SR_SV_WT_case1_P5_eps9999_2026_05_06_19_25.log"
19:25:05 | INFO    | Solver configured | TimeLimit=600s | MIPGap=0.01 | gurobi_log=C:\Users\Asus\Documents\GitHub\logistics-model2\internal-logistics-model2\results\SR_SV_WT\case1\result_SR_SV_WT_case1_P5_eps9999_2026_05_06_19_25.log
19:25:05 | INFO    | Optimization starting...
19:25:05 | INFO    | Gurobi Optimizer version 12.0.0 build v12.0.0rc1 (win64 - Windows 10.0 (19045.2))
19:25:05 | INFO    | 
19:25:05 | INFO    | CPU model: 12th Gen Intel(R) Core(TM) i7-12650H, instruction set [SSE2|AVX|AVX2]
19:25:05 | INFO    | Thread count: 10 physical cores, 16 logical processors, using up to 16 threads
19:25:05 | INFO    | 
19:25:05 | INFO    | Non-default parameters:
19:25:05 | INFO    | TimeLimit  600
19:25:05 | INFO    | MIPGap  0.01
19:25:05 | INFO    | Presolve  2
19:25:05 | INFO    | 
19:25:05 | INFO    | Optimize a model with 3852 rows, 1123 columns and 19430 nonzeros
19:25:05 | INFO    | Model fingerprint: 0x7f1cd290
19:25:05 | INFO    | Variable types: 158 continuous, 965 integer (935 binary)
19:25:05 | INFO    | Coefficient statistics:
19:25:05 | INFO    |   Matrix range     [1e+00, 5e+02]
19:25:05 | INFO    |   Objective range  [1e-03, 1e+00]
19:25:05 | INFO    |   Bounds range     [1e+00, 3e+01]
19:25:05 | INFO    |   RHS range        [1e+00, 1e+04]
19:25:05 | INFO    | Presolve removed 3434 rows and 975 columns
19:25:05 | INFO    | Presolve time: 0.01s
19:25:05 | INFO    | Presolved: 418 rows, 148 columns, 2056 nonzeros
19:25:05 | INFO    | Variable types: 33 continuous, 115 integer (105 binary)
19:25:05 | INFO    | Root relaxation presolve removed 12 rows and 0 columns
19:25:05 | INFO    | Root relaxation presolved: 406 rows, 159 columns, 2034 nonzeros
19:25:05 | INFO    | 
19:25:05 | INFO    | 
19:25:05 | INFO    | Root relaxation: objective 1.500000e+01, 89 iterations, 0.01 seconds (0.00 work units)
19:25:05 | INFO    | 
19:25:05 | INFO    |     Nodes    |    Current Node    |     Objective Bounds      |     Work
19:25:05 | INFO    |  Expl Unexpl |  Obj  Depth IntInf | Incumbent    BestBd   Gap | It/Node Time
19:25:05 | INFO    | 
19:25:05 | INFO    |      0     0   15.00000    0    9          -   15.00000      -     -    0s
19:25:05 | INFO    | H    0     0                     247.9990000   15.00000  94.0%     -    0s
19:25:05 | INFO    | H    0     0                     215.1080000   15.00000  93.0%     -    0s
19:25:05 | INFO    |      0     0   15.00000    0   28  215.10800   15.00000  93.0%     -    0s
19:25:05 | INFO    |      0     0   15.00000    0   29  215.10800   15.00000  93.0%     -    0s
19:25:05 | INFO    | H    0     0                     112.0820000   15.00000  86.6%     -    0s
19:25:05 | INFO    |      0     0   15.00000    0   23  112.08200   15.00000  86.6%     -    0s
19:25:05 | INFO    |      0     0   15.00000    0   31  112.08200   15.00000  86.6%     -    0s
19:25:05 | INFO    |      0     0   15.08502    0   22  112.08200   15.08502  86.5%     -    0s
19:25:05 | INFO    |      0     0   15.51774    0   35  112.08200   15.51774  86.2%     -    0s
19:25:05 | INFO    |      0     0   23.29239    0   38  112.08200   23.29239  79.2%     -    0s
19:25:05 | INFO    |      0     0   23.47708    0   38  112.08200   23.47708  79.1%     -    0s
19:25:05 | INFO    |      0     0   33.69923    0   33  112.08200   33.69923  69.9%     -    0s
19:25:05 | INFO    | H    0     0                     108.0810000   34.05441  68.5%     -    0s
19:25:05 | INFO    |      0     0   34.05441    0   35  108.08100   34.05441  68.5%     -    0s
19:25:05 | INFO    |      0     0   34.05441    0   35  108.08100   34.05441  68.5%     -    0s
19:25:05 | INFO    |      0     0   35.33550    0   35  108.08100   35.33550  67.3%     -    0s
19:25:05 | INFO    |      0     0   35.37528    0   34  108.08100   35.37528  67.3%     -    0s
19:25:05 | INFO    |      0     0   35.53050    0   27  108.08100   35.53050  67.1%     -    0s
19:25:05 | INFO    |      0     0   35.62364    0   27  108.08100   35.62364  67.0%     -    0s
19:25:05 | INFO    |      0     0   35.62364    0   41  108.08100   35.62364  67.0%     -    0s
19:25:05 | INFO    |      0     0   35.62364    0   41  108.08100   35.62364  67.0%     -    0s
19:25:05 | INFO    |      0     0   35.62364    0   43  108.08100   35.62364  67.0%     -    0s
19:25:05 | INFO    |      0     0   35.62364    0   44  108.08100   35.62364  67.0%     -    0s
19:25:05 | INFO    |      0     0   35.64754    0   44  108.08100   35.64754  67.0%     -    0s
19:25:05 | INFO    |      0     0   35.64754    0   45  108.08100   35.64754  67.0%     -    0s
19:25:05 | INFO    |      0     0   35.65213    0   45  108.08100   35.65213  67.0%     -    0s
19:25:05 | INFO    |      0     0   35.65213    0   45  108.08100   35.65213  67.0%     -    0s
19:25:05 | INFO    |      0     2   35.79311    0   44  108.08100   35.79311  66.9%     -    0s
19:25:05 | INFO    | H   62    72                     105.0840000   37.41879  64.4%  17.1    0s
19:25:05 | INFO    | H  145   170                      97.0830000   37.41879  61.5%  15.7    0s
19:25:05 | INFO    | * 1026   601              18      91.0770000   44.56246  51.1%  13.5    0s
19:25:06 | INFO    | H 4130  1532                      90.0790000   51.03657  43.3%  13.8    0s
19:25:06 | INFO    | * 4828  1469              24      89.0810000   51.03657  42.7%  14.0    0s
19:25:07 | INFO    | 
19:25:07 | INFO    | Cutting planes:
19:25:07 | INFO    |   Learned: 10
19:25:07 | INFO    |   Gomory: 10
19:25:07 | INFO    |   Cover: 1
19:25:07 | INFO    |   Implied bound: 38
19:25:07 | INFO    |   Clique: 2
19:25:07 | INFO    |   MIR: 59
19:25:07 | INFO    |   Flow cover: 140
19:25:07 | INFO    |   Inf proof: 18
19:25:07 | INFO    |   RLT: 18
19:25:07 | INFO    |   Relax-and-lift: 25
19:25:07 | INFO    |   PSD: 1
19:25:07 | INFO    | 
19:25:07 | INFO    | Explored 18056 nodes (279655 simplex iterations) in 1.56 seconds (1.67 work units)
19:25:07 | INFO    | Thread count was 16 (of 16 available processors)
19:25:07 | INFO    | 
19:25:07 | INFO    | Solution count 9: 89.081 90.079 91.077 ... 247.999
19:25:07 | INFO    | 
19:25:07 | INFO    | Optimal solution found (tolerance 1.00e-02)
19:25:07 | INFO    | Best objective 8.908100000000e+01, best bound 8.908100000000e+01, gap 0.0000%
19:25:07 | INFO    | Solution found | total_wait=89.00 | route_duration=81.00
19:25:07 | INFO    | Objective=89.08 | runtime=1.56s | MIP Gap=0.00%
19:25:07 | INFO    | Generating Excel output | C:\Users\Asus\Documents\GitHub\logistics-model2\internal-logistics-model2\results\SR_SV_WT\case1\result_SR_SV_WT_case1_P5_eps9999_2026_05_06_19_25.xlsx
19:25:07 | INFO    | Excel output written | 12 sheets | C:\Users\Asus\Documents\GitHub\logistics-model2\internal-logistics-model2\results\SR_SV_WT\case1\result_SR_SV_WT_case1_P5_eps9999_2026_05_06_19_25.xlsx
19:25:07 | INFO    | Master Pareto updated | 8 total rows | C:\Users\Asus\Documents\GitHub\logistics-model2\internal-logistics-model2\results\master_pareto.xlsx
19:25:07 | INFO    | Run complete | run_id=SR_SV_WT_case1_P5_eps9999
